p cnf 223 623
-12 0
-13 0
17 0
48 0
59 0
62 0
63 0
64 0
95 0
171 0
177 0
-5 -11 0
-5 -14 0
-5 -16 0
-5 -35 0
-5 -40 0
-5 -56 0
-5 -88 0
-5 -111 0
-5 -161 0
-5 -170 0
-5 -172 0
-5 -173 0
-5 -184 0
-5 -185 0
-5 -204 0
-5 -205 0
-11 -14 0
-11 -16 0
-11 -35 0
-11 -40 0
-11 -56 0
-11 -88 0
-11 -111 0
-11 -161 0
-11 -170 0
-11 -172 0
-11 -173 0
-11 -184 0
-11 -185 0
-11 -204 0
-11 -205 0
-14 -16 0
-14 -35 0
-14 -40 0
-14 -56 0
-14 -88 0
-14 -111 0
-14 -161 0
-14 -170 0
-14 -172 0
-14 -173 0
-14 -184 0
-14 -185 0
-14 -204 0
-14 -205 0
-16 -35 0
-16 -40 0
-16 -56 0
-16 -88 0
-16 -111 0
-16 -161 0
-16 -170 0
-16 -172 0
-16 -173 0
-16 -184 0
-16 -185 0
-16 -204 0
-16 -205 0
-35 -40 0
-35 -56 0
-35 -88 0
-35 -111 0
-35 -161 0
-35 -170 0
-35 -172 0
-35 -173 0
-35 -184 0
-35 -185 0
-35 -204 0
-35 -205 0
-40 -56 0
-40 -88 0
-40 -111 0
-40 -161 0
-40 -170 0
-40 -172 0
-40 -173 0
-40 -184 0
-40 -185 0
-40 -204 0
-40 -205 0
-56 -88 0
-56 -111 0
-56 -161 0
-56 -170 0
-56 -172 0
-56 -173 0
-56 -184 0
-56 -185 0
-56 -204 0
-56 -205 0
-88 -111 0
-88 -161 0
-88 -170 0
-88 -172 0
-88 -173 0
-88 -184 0
-88 -185 0
-88 -204 0
-88 -205 0
-111 -161 0
-111 -170 0
-111 -172 0
-111 -173 0
-111 -184 0
-111 -185 0
-111 -204 0
-111 -205 0
-161 -170 0
-161 -172 0
-161 -173 0
-161 -184 0
-161 -185 0
-161 -204 0
-161 -205 0
-170 -172 0
-170 -173 0
-170 -184 0
-170 -185 0
-170 -204 0
-170 -205 0
-172 -173 0
-172 -184 0
-172 -185 0
-172 -204 0
-172 -205 0
-173 -184 0
-173 -185 0
-173 -204 0
-173 -205 0
-184 -185 0
-184 -204 0
-184 -205 0
-185 -204 0
-185 -205 0
-204 -205 0
5 11 14 16 35 40 56 88 111 161 170 172 173 184 185 204 205 0
-6 -7 0
-6 -38 0
-6 -39 0
-7 -38 0
-7 -39 0
-38 -39 0
-8 -9 0
-8 -10 0
-9 -10 0
8 9 10 0
17 0
-18 -19 0
-18 -20 0
-18 -21 0
-18 -22 0
-18 -23 0
-18 -24 0
-18 -25 0
-18 -26 0
-19 -20 0
-19 -21 0
-19 -22 0
-19 -23 0
-19 -24 0
-19 -25 0
-19 -26 0
-20 -21 0
-20 -22 0
-20 -23 0
-20 -24 0
-20 -25 0
-20 -26 0
-21 -22 0
-21 -23 0
-21 -24 0
-21 -25 0
-21 -26 0
-22 -23 0
-22 -24 0
-22 -25 0
-22 -26 0
-23 -24 0
-23 -25 0
-23 -26 0
-24 -25 0
-24 -26 0
-25 -26 0
18 19 20 21 22 23 24 25 26 0
-27 -36 0
-27 -37 0
-27 -51 0
-36 -37 0
-36 -51 0
-37 -51 0
-29 -30 0
-29 -31 0
-30 -31 0
29 30 31 0
-32 -33 0
-32 -34 0
-32 -201 0
-32 -202 0
-32 -210 0
-32 -211 0
-33 -34 0
-33 -201 0
-33 -202 0
-33 -210 0
-33 -211 0
-34 -201 0
-34 -202 0
-34 -210 0
-34 -211 0
-201 -202 0
-201 -210 0
-201 -211 0
-202 -210 0
-202 -211 0
-210 -211 0
-41 -42 0
-41 -43 0
-41 -44 0
-41 -45 0
-41 -46 0
-42 -43 0
-42 -44 0
-42 -45 0
-42 -46 0
-43 -44 0
-43 -45 0
-43 -46 0
-44 -45 0
-44 -46 0
-45 -46 0
48 0
-49 -50 0
-53 -54 0
-53 -55 0
-54 -55 0
59 0
-61 -66 0
-61 -67 0
-61 -68 0
-61 -69 0
-61 -70 0
-61 -160 0
-66 -67 0
-66 -68 0
-66 -69 0
-66 -70 0
-66 -160 0
-67 -68 0
-67 -69 0
-67 -70 0
-67 -160 0
-68 -69 0
-68 -70 0
-68 -160 0
-69 -70 0
-69 -160 0
-70 -160 0
61 66 67 68 69 70 160 0
62 0
63 0
64 0
-65 -217 0
-65 -218 0
-217 -218 0
-71 -72 0
-71 -73 0
-72 -73 0
-74 -75 0
-74 -76 0
-74 -77 0
-74 -93 0
-74 -94 0
-75 -76 0
-75 -77 0
-75 -93 0
-75 -94 0
-76 -77 0
-76 -93 0
-76 -94 0
-77 -93 0
-77 -94 0
-93 -94 0
-79 -80 0
-79 -81 0
-79 -82 0
-79 -83 0
-80 -81 0
-80 -82 0
-80 -83 0
-81 -82 0
-81 -83 0
-82 -83 0
-84 -85 0
-84 -86 0
-85 -86 0
-92 -216 0
95 0
-97 -98 0
-99 -100 0
99 100 0
-109 -110 0
109 110 0
-142 -144 0
-142 -145 0
-142 -146 0
-142 -147 0
-142 -166 0
-142 -174 0
-142 -175 0
-142 -178 0
-142 -180 0
-142 -182 0
-142 -183 0
-142 -219 0
-142 -220 0
-142 -221 0
-142 -222 0
-142 -223 0
-144 -145 0
-144 -146 0
-144 -147 0
-144 -166 0
-144 -174 0
-144 -175 0
-144 -178 0
-144 -180 0
-144 -182 0
-144 -183 0
-144 -219 0
-144 -220 0
-144 -221 0
-144 -222 0
-144 -223 0
-145 -146 0
-145 -147 0
-145 -166 0
-145 -174 0
-145 -175 0
-145 -178 0
-145 -180 0
-145 -182 0
-145 -183 0
-145 -219 0
-145 -220 0
-145 -221 0
-145 -222 0
-145 -223 0
-146 -147 0
-146 -166 0
-146 -174 0
-146 -175 0
-146 -178 0
-146 -180 0
-146 -182 0
-146 -183 0
-146 -219 0
-146 -220 0
-146 -221 0
-146 -222 0
-146 -223 0
-147 -166 0
-147 -174 0
-147 -175 0
-147 -178 0
-147 -180 0
-147 -182 0
-147 -183 0
-147 -219 0
-147 -220 0
-147 -221 0
-147 -222 0
-147 -223 0
-166 -174 0
-166 -175 0
-166 -178 0
-166 -180 0
-166 -182 0
-166 -183 0
-166 -219 0
-166 -220 0
-166 -221 0
-166 -222 0
-166 -223 0
-174 -175 0
-174 -178 0
-174 -180 0
-174 -182 0
-174 -183 0
-174 -219 0
-174 -220 0
-174 -221 0
-174 -222 0
-174 -223 0
-175 -178 0
-175 -180 0
-175 -182 0
-175 -183 0
-175 -219 0
-175 -220 0
-175 -221 0
-175 -222 0
-175 -223 0
-178 -180 0
-178 -182 0
-178 -183 0
-178 -219 0
-178 -220 0
-178 -221 0
-178 -222 0
-178 -223 0
-180 -182 0
-180 -183 0
-180 -219 0
-180 -220 0
-180 -221 0
-180 -222 0
-180 -223 0
-182 -183 0
-182 -219 0
-182 -220 0
-182 -221 0
-182 -222 0
-182 -223 0
-183 -219 0
-183 -220 0
-183 -221 0
-183 -222 0
-183 -223 0
-219 -220 0
-219 -221 0
-219 -222 0
-219 -223 0
-220 -221 0
-220 -222 0
-220 -223 0
-221 -222 0
-221 -223 0
-222 -223 0
142 144 145 146 147 166 174 175 178 180 182 183 219 220 221 222 223 0
-162 -163 0
-162 -167 0
-162 -168 0
-162 -169 0
-162 -181 0
-163 -167 0
-163 -168 0
-163 -169 0
-163 -181 0
-167 -168 0
-167 -169 0
-167 -181 0
-168 -169 0
-168 -181 0
-169 -181 0
-164 -165 0
164 165 0
171 0
177 0
-193 -194 0
-193 -195 0
-194 -195 0
193 194 195 0
-197 -198 0
-197 -199 0
-197 -200 0
-198 -199 0
-198 -200 0
-199 -200 0
-207 -208 0
-207 -212 0
-207 -213 0
-207 -214 0
-208 -212 0
-208 -213 0
-208 -214 0
-212 -213 0
-212 -214 0
-213 -214 0
207 208 212 213 214 0
-1 90 0
-2 1 0
-3 193 0
-3 -142 0
-3 -195 0
-3 -207 0
-5 -16 0
-8 -9 0
-10 -9 0
-11 -16 0
-14 -16 0
-18 70 0
-18 -66 0
-19 -66 0
-20 69 0
-20 -66 0
-21 -66 0
-22 160 0
-22 -66 0
-23 -66 0
-24 -66 0
-25 -66 0
-26 -66 0
-28 203 0
-28 89 0
-28 193 0
-28 -142 0
-28 -195 0
-31 -30 0
-35 -16 0
-40 -16 0
-41 193 0
-41 -195 0
-42 193 0
-42 -195 0
-43 193 0
-43 -195 0
-44 193 0
-44 -195 0
-45 193 0
-45 -195 0
-46 3 0
-46 193 0
-46 -142 0
-46 -195 0
-46 -207 0
-52 89 0
-56 -16 0
-61 -66 0
-67 -66 0
-68 -66 0
-69 -66 0
-70 -66 0
-88 -16 0
-90 1 0
-100 -207 0
-100 -99 0
-109 -110 0
-111 -16 0
-141 89 0
-143 203 0
-143 28 0
-143 89 0
-143 193 0
-143 -142 0
-143 -195 0
-144 -142 0
-145 -142 0
-146 -142 0
-147 -142 0
-160 -66 0
-161 -16 0
-164 96 0
-164 -165 0
-166 -142 0
-170 -16 0
-172 -16 0
-173 -16 0
-174 -142 0
-175 -142 0
-178 -142 0
-180 -142 0
-182 -142 0
-183 -142 0
-184 -16 0
-185 -16 0
-189 96 0
-193 -195 0
-194 -30 0
-194 -195 0
-203 28 0
-203 89 0
-203 193 0
-203 -142 0
-203 -195 0
-204 -16 0
-205 -16 0
-208 -207 0
-212 -207 0
-213 -207 0
-214 -207 0
-219 89 0
-219 203 0
-219 28 0
-219 193 0
-219 -195 0
-219 -142 0
-220 89 0
-220 203 0
-220 28 0
-220 193 0
-220 -195 0
-220 -142 0
-221 89 0
-221 203 0
-221 28 0
-221 193 0
-221 -195 0
-221 -142 0
-222 89 0
-222 203 0
-222 28 0
-222 193 0
-222 -195 0
-222 -142 0
-223 -142 0
-20 69 0
-20 -70 0
-20 -21 0
-18 70 0
-18 -69 0
-18 -20 0
